; benchmark generated from python API
(set-info :status unknown)
(declare-fun cell_1_3 () Int)
(declare-fun cell_1_4 () Int)
(declare-fun cell_2_1 () Int)
(declare-fun cell_2_5 () Int)
(declare-fun cell_3_7 () Int)
(declare-fun cell_3_8 () Int)
(declare-fun cell_4_6 () Int)
(declare-fun cell_5_9 () Int)
(declare-fun cell_6_2 () Int)
(declare-fun cell_7_5 () Int)
(declare-fun cell_8_8 () Int)
(declare-fun cell_9_3 () Int)
(declare-fun cell_1_1 () Int)
(declare-fun cell_3_1 () Int)
(declare-fun cell_4_1 () Int)
(declare-fun cell_5_1 () Int)
(declare-fun cell_6_1 () Int)
(declare-fun cell_7_1 () Int)
(declare-fun cell_8_1 () Int)
(declare-fun cell_9_1 () Int)
(declare-fun cell_1_2 () Int)
(declare-fun cell_2_2 () Int)
(declare-fun cell_3_2 () Int)
(declare-fun cell_4_2 () Int)
(declare-fun cell_5_2 () Int)
(declare-fun cell_7_2 () Int)
(declare-fun cell_8_2 () Int)
(declare-fun cell_9_2 () Int)
(declare-fun cell_2_3 () Int)
(declare-fun cell_3_3 () Int)
(declare-fun cell_4_3 () Int)
(declare-fun cell_5_3 () Int)
(declare-fun cell_6_3 () Int)
(declare-fun cell_7_3 () Int)
(declare-fun cell_8_3 () Int)
(declare-fun cell_2_4 () Int)
(declare-fun cell_3_4 () Int)
(declare-fun cell_4_4 () Int)
(declare-fun cell_5_4 () Int)
(declare-fun cell_6_4 () Int)
(declare-fun cell_7_4 () Int)
(declare-fun cell_8_4 () Int)
(declare-fun cell_9_4 () Int)
(declare-fun cell_1_5 () Int)
(declare-fun cell_3_5 () Int)
(declare-fun cell_4_5 () Int)
(declare-fun cell_5_5 () Int)
(declare-fun cell_6_5 () Int)
(declare-fun cell_8_5 () Int)
(declare-fun cell_9_5 () Int)
(declare-fun cell_1_6 () Int)
(declare-fun cell_2_6 () Int)
(declare-fun cell_3_6 () Int)
(declare-fun cell_5_6 () Int)
(declare-fun cell_6_6 () Int)
(declare-fun cell_7_6 () Int)
(declare-fun cell_8_6 () Int)
(declare-fun cell_9_6 () Int)
(declare-fun cell_1_7 () Int)
(declare-fun cell_2_7 () Int)
(declare-fun cell_4_7 () Int)
(declare-fun cell_5_7 () Int)
(declare-fun cell_6_7 () Int)
(declare-fun cell_7_7 () Int)
(declare-fun cell_8_7 () Int)
(declare-fun cell_9_7 () Int)
(declare-fun cell_1_8 () Int)
(declare-fun cell_2_8 () Int)
(declare-fun cell_4_8 () Int)
(declare-fun cell_5_8 () Int)
(declare-fun cell_6_8 () Int)
(declare-fun cell_7_8 () Int)
(declare-fun cell_9_8 () Int)
(declare-fun cell_1_9 () Int)
(declare-fun cell_2_9 () Int)
(declare-fun cell_3_9 () Int)
(declare-fun cell_4_9 () Int)
(declare-fun cell_6_9 () Int)
(declare-fun cell_7_9 () Int)
(declare-fun cell_8_9 () Int)
(declare-fun cell_9_9 () Int)
(assert
 (= cell_1_3 2))
(assert
 (= cell_1_4 1))
(assert
 (= cell_2_1 1))
(assert
 (= cell_2_5 2))
(assert
 (= cell_3_7 1))
(assert
 (= cell_3_8 2))
(assert
 (= cell_4_6 1))
(assert
 (= cell_5_9 1))
(assert
 (= cell_6_2 1))
(assert
 (= cell_7_5 1))
(assert
 (= cell_8_8 1))
(assert
 (= cell_9_3 1))
(assert
 (let (($x8036 (= cell_1_1 9)))
 (let (($x9073 (= cell_1_1 8)))
 (let (($x844 (= cell_1_1 7)))
 (let (($x8448 (= cell_1_1 6)))
 (let (($x5998 (= cell_1_1 5)))
 (let (($x1673 (= cell_1_1 4)))
 (let (($x1189 (= cell_1_1 3)))
 (let (($x2244 (= cell_1_1 2)))
 (let (($x7846 (= cell_1_1 1)))
 (or $x7846 $x2244 $x1189 $x1673 $x5998 $x8448 $x844 $x9073 $x8036)))))))))))
(assert
 (let (($x3292 (= cell_2_1 1)))
 (or $x3292 (= cell_2_1 2) (= cell_2_1 3) (= cell_2_1 4) (= cell_2_1 5) (= cell_2_1 6) (= cell_2_1 7) (= cell_2_1 8) (= cell_2_1 9))))
(assert
 (let (($x7236 (= cell_3_1 9)))
 (let (($x3669 (= cell_3_1 8)))
 (let (($x9576 (= cell_3_1 7)))
 (let (($x9526 (= cell_3_1 6)))
 (let (($x2007 (= cell_3_1 5)))
 (let (($x1801 (= cell_3_1 4)))
 (let (($x4447 (= cell_3_1 3)))
 (let (($x3077 (= cell_3_1 2)))
 (let (($x764 (= cell_3_1 1)))
 (or $x764 $x3077 $x4447 $x1801 $x2007 $x9526 $x9576 $x3669 $x7236)))))))))))
(assert
 (let (($x3309 (= cell_4_1 9)))
 (let (($x7711 (= cell_4_1 8)))
 (let (($x6462 (= cell_4_1 7)))
 (let (($x3452 (= cell_4_1 6)))
 (let (($x5254 (= cell_4_1 5)))
 (let (($x1295 (= cell_4_1 4)))
 (let (($x615 (= cell_4_1 3)))
 (let (($x3873 (= cell_4_1 2)))
 (let (($x2529 (= cell_4_1 1)))
 (or $x2529 $x3873 $x615 $x1295 $x5254 $x3452 $x6462 $x7711 $x3309)))))))))))
(assert
 (let (($x8956 (= cell_5_1 9)))
 (let (($x7505 (= cell_5_1 8)))
 (let (($x1221 (= cell_5_1 7)))
 (let (($x4208 (= cell_5_1 6)))
 (let (($x7728 (= cell_5_1 5)))
 (let (($x3647 (= cell_5_1 4)))
 (let (($x1102 (= cell_5_1 3)))
 (let (($x2407 (= cell_5_1 2)))
 (let (($x3723 (= cell_5_1 1)))
 (or $x3723 $x2407 $x1102 $x3647 $x7728 $x4208 $x1221 $x7505 $x8956)))))))))))
(assert
 (let (($x7818 (= cell_6_1 9)))
 (let (($x7599 (= cell_6_1 8)))
 (let (($x3570 (= cell_6_1 7)))
 (let (($x2370 (= cell_6_1 6)))
 (let (($x7055 (= cell_6_1 5)))
 (let (($x3303 (= cell_6_1 4)))
 (let (($x8529 (= cell_6_1 3)))
 (let (($x9850 (= cell_6_1 2)))
 (let (($x6536 (= cell_6_1 1)))
 (or $x6536 $x9850 $x8529 $x3303 $x7055 $x2370 $x3570 $x7599 $x7818)))))))))))
(assert
 (let (($x8285 (= cell_7_1 9)))
 (let (($x1565 (= cell_7_1 8)))
 (let (($x6307 (= cell_7_1 7)))
 (let (($x1825 (= cell_7_1 6)))
 (let (($x6844 (= cell_7_1 5)))
 (let (($x8851 (= cell_7_1 4)))
 (let (($x6887 (= cell_7_1 3)))
 (let (($x3194 (= cell_7_1 2)))
 (let (($x6794 (= cell_7_1 1)))
 (or $x6794 $x3194 $x6887 $x8851 $x6844 $x1825 $x6307 $x1565 $x8285)))))))))))
(assert
 (let (($x9097 (= cell_8_1 9)))
 (let (($x1204 (= cell_8_1 8)))
 (let (($x4516 (= cell_8_1 7)))
 (let (($x8643 (= cell_8_1 6)))
 (let (($x8634 (= cell_8_1 5)))
 (let (($x4917 (= cell_8_1 4)))
 (let (($x8523 (= cell_8_1 3)))
 (let (($x6074 (= cell_8_1 2)))
 (let (($x1798 (= cell_8_1 1)))
 (or $x1798 $x6074 $x8523 $x4917 $x8634 $x8643 $x4516 $x1204 $x9097)))))))))))
(assert
 (let (($x6739 (= cell_9_1 9)))
 (let (($x6039 (= cell_9_1 8)))
 (let (($x2313 (= cell_9_1 7)))
 (let (($x2585 (= cell_9_1 6)))
 (let (($x8810 (= cell_9_1 5)))
 (let (($x603 (= cell_9_1 4)))
 (let (($x2454 (= cell_9_1 3)))
 (let (($x1505 (= cell_9_1 2)))
 (let (($x7418 (= cell_9_1 1)))
 (or $x7418 $x1505 $x2454 $x603 $x8810 $x2585 $x2313 $x6039 $x6739)))))))))))
(assert
 (let (($x5076 (= cell_1_2 9)))
 (let (($x6024 (= cell_1_2 8)))
 (let (($x989 (= cell_1_2 7)))
 (let (($x63 (= cell_1_2 6)))
 (let (($x6821 (= cell_1_2 5)))
 (let (($x2526 (= cell_1_2 4)))
 (let (($x5836 (= cell_1_2 3)))
 (let (($x3457 (= cell_1_2 2)))
 (let (($x10222 (= cell_1_2 1)))
 (or $x10222 $x3457 $x5836 $x2526 $x6821 $x63 $x989 $x6024 $x5076)))))))))))
(assert
 (let (($x7519 (= cell_2_2 9)))
 (let (($x2056 (= cell_2_2 8)))
 (let (($x4007 (= cell_2_2 7)))
 (let (($x4116 (= cell_2_2 6)))
 (let (($x9423 (= cell_2_2 5)))
 (let (($x5425 (= cell_2_2 4)))
 (let (($x8099 (= cell_2_2 3)))
 (let (($x6972 (= cell_2_2 2)))
 (let (($x6232 (= cell_2_2 1)))
 (or $x6232 $x6972 $x8099 $x5425 $x9423 $x4116 $x4007 $x2056 $x7519)))))))))))
(assert
 (let (($x1993 (= cell_3_2 9)))
 (let (($x7096 (= cell_3_2 8)))
 (let (($x2552 (= cell_3_2 7)))
 (let (($x4751 (= cell_3_2 6)))
 (let (($x8946 (= cell_3_2 5)))
 (let (($x5583 (= cell_3_2 4)))
 (let (($x9933 (= cell_3_2 3)))
 (let (($x2747 (= cell_3_2 2)))
 (let (($x811 (= cell_3_2 1)))
 (or $x811 $x2747 $x9933 $x5583 $x8946 $x4751 $x2552 $x7096 $x1993)))))))))))
(assert
 (let (($x397 (= cell_4_2 9)))
 (let (($x2664 (= cell_4_2 8)))
 (let (($x4724 (= cell_4_2 7)))
 (let (($x6195 (= cell_4_2 6)))
 (let (($x1799 (= cell_4_2 5)))
 (let (($x9718 (= cell_4_2 4)))
 (let (($x2131 (= cell_4_2 3)))
 (let (($x6787 (= cell_4_2 2)))
 (let (($x452 (= cell_4_2 1)))
 (or $x452 $x6787 $x2131 $x9718 $x1799 $x6195 $x4724 $x2664 $x397)))))))))))
(assert
 (let (($x2520 (= cell_5_2 9)))
 (let (($x2968 (= cell_5_2 8)))
 (let (($x8422 (= cell_5_2 7)))
 (let (($x7123 (= cell_5_2 6)))
 (let (($x827 (= cell_5_2 5)))
 (let (($x787 (= cell_5_2 4)))
 (let (($x7916 (= cell_5_2 3)))
 (let (($x9455 (= cell_5_2 2)))
 (let (($x9877 (= cell_5_2 1)))
 (or $x9877 $x9455 $x7916 $x787 $x827 $x7123 $x8422 $x2968 $x2520)))))))))))
(assert
 (let (($x931 (= cell_6_2 1)))
 (or $x931 (= cell_6_2 2) (= cell_6_2 3) (= cell_6_2 4) (= cell_6_2 5) (= cell_6_2 6) (= cell_6_2 7) (= cell_6_2 8) (= cell_6_2 9))))
(assert
 (let (($x17 (= cell_7_2 9)))
 (let (($x3523 (= cell_7_2 8)))
 (let (($x1878 (= cell_7_2 7)))
 (let (($x7735 (= cell_7_2 6)))
 (let (($x201 (= cell_7_2 5)))
 (let (($x8789 (= cell_7_2 4)))
 (let (($x4117 (= cell_7_2 3)))
 (let (($x5207 (= cell_7_2 2)))
 (let (($x3168 (= cell_7_2 1)))
 (or $x3168 $x5207 $x4117 $x8789 $x201 $x7735 $x1878 $x3523 $x17)))))))))))
(assert
 (let (($x3412 (= cell_8_2 9)))
 (let (($x2621 (= cell_8_2 8)))
 (let (($x5288 (= cell_8_2 7)))
 (let (($x7954 (= cell_8_2 6)))
 (let (($x8871 (= cell_8_2 5)))
 (let (($x5004 (= cell_8_2 4)))
 (let (($x3464 (= cell_8_2 3)))
 (let (($x2002 (= cell_8_2 2)))
 (let (($x10221 (= cell_8_2 1)))
 (or $x10221 $x2002 $x3464 $x5004 $x8871 $x7954 $x5288 $x2621 $x3412)))))))))))
(assert
 (let (($x2145 (= cell_9_2 9)))
 (let (($x5128 (= cell_9_2 8)))
 (let (($x10160 (= cell_9_2 7)))
 (let (($x6160 (= cell_9_2 6)))
 (let (($x9585 (= cell_9_2 5)))
 (let (($x7246 (= cell_9_2 4)))
 (let (($x6291 (= cell_9_2 3)))
 (let (($x6153 (= cell_9_2 2)))
 (let (($x10093 (= cell_9_2 1)))
 (or $x10093 $x6153 $x6291 $x7246 $x9585 $x6160 $x10160 $x5128 $x2145)))))))))))
(assert
 (let (($x4971 (= cell_1_3 2)))
 (or (= cell_1_3 1) $x4971 (= cell_1_3 3) (= cell_1_3 4) (= cell_1_3 5) (= cell_1_3 6) (= cell_1_3 7) (= cell_1_3 8) (= cell_1_3 9))))
(assert
 (let (($x641 (= cell_2_3 9)))
 (let (($x2691 (= cell_2_3 8)))
 (let (($x3399 (= cell_2_3 7)))
 (let (($x3536 (= cell_2_3 6)))
 (let (($x10258 (= cell_2_3 5)))
 (let (($x7943 (= cell_2_3 4)))
 (let (($x4865 (= cell_2_3 3)))
 (let (($x337 (= cell_2_3 2)))
 (let (($x807 (= cell_2_3 1)))
 (or $x807 $x337 $x4865 $x7943 $x10258 $x3536 $x3399 $x2691 $x641)))))))))))
(assert
 (let (($x10156 (= cell_3_3 9)))
 (let (($x6004 (= cell_3_3 8)))
 (let (($x3087 (= cell_3_3 7)))
 (let (($x8091 (= cell_3_3 6)))
 (let (($x8404 (= cell_3_3 5)))
 (let (($x10188 (= cell_3_3 4)))
 (let (($x9960 (= cell_3_3 3)))
 (let (($x3195 (= cell_3_3 2)))
 (let (($x7027 (= cell_3_3 1)))
 (or $x7027 $x3195 $x9960 $x10188 $x8404 $x8091 $x3087 $x6004 $x10156)))))))))))
(assert
 (let (($x7567 (= cell_4_3 9)))
 (let (($x7538 (= cell_4_3 8)))
 (let (($x4825 (= cell_4_3 7)))
 (let (($x7713 (= cell_4_3 6)))
 (let (($x3666 (= cell_4_3 5)))
 (let (($x414 (= cell_4_3 4)))
 (let (($x6608 (= cell_4_3 3)))
 (let (($x3165 (= cell_4_3 2)))
 (let (($x10070 (= cell_4_3 1)))
 (or $x10070 $x3165 $x6608 $x414 $x3666 $x7713 $x4825 $x7538 $x7567)))))))))))
(assert
 (let (($x5485 (= cell_5_3 9)))
 (let (($x9860 (= cell_5_3 8)))
 (let (($x4495 (= cell_5_3 7)))
 (let (($x3927 (= cell_5_3 6)))
 (let (($x8127 (= cell_5_3 5)))
 (let (($x2655 (= cell_5_3 4)))
 (let (($x7514 (= cell_5_3 3)))
 (let (($x3160 (= cell_5_3 2)))
 (let (($x9174 (= cell_5_3 1)))
 (or $x9174 $x3160 $x7514 $x2655 $x8127 $x3927 $x4495 $x9860 $x5485)))))))))))
(assert
 (let (($x9902 (= cell_6_3 9)))
 (let (($x1749 (= cell_6_3 8)))
 (let (($x6372 (= cell_6_3 7)))
 (let (($x9066 (= cell_6_3 6)))
 (let (($x1170 (= cell_6_3 5)))
 (let (($x9103 (= cell_6_3 4)))
 (let (($x3868 (= cell_6_3 3)))
 (let (($x5344 (= cell_6_3 2)))
 (let (($x7158 (= cell_6_3 1)))
 (or $x7158 $x5344 $x3868 $x9103 $x1170 $x9066 $x6372 $x1749 $x9902)))))))))))
(assert
 (let (($x8287 (= cell_7_3 9)))
 (let (($x9251 (= cell_7_3 8)))
 (let (($x2462 (= cell_7_3 7)))
 (let (($x2862 (= cell_7_3 6)))
 (let (($x4194 (= cell_7_3 5)))
 (let (($x10003 (= cell_7_3 4)))
 (let (($x9754 (= cell_7_3 3)))
 (let (($x6558 (= cell_7_3 2)))
 (let (($x612 (= cell_7_3 1)))
 (or $x612 $x6558 $x9754 $x10003 $x4194 $x2862 $x2462 $x9251 $x8287)))))))))))
(assert
 (let (($x7907 (= cell_8_3 9)))
 (let (($x761 (= cell_8_3 8)))
 (let (($x399 (= cell_8_3 7)))
 (let (($x9155 (= cell_8_3 6)))
 (let (($x6492 (= cell_8_3 5)))
 (let (($x2518 (= cell_8_3 4)))
 (let (($x5495 (= cell_8_3 3)))
 (let (($x5662 (= cell_8_3 2)))
 (let (($x4164 (= cell_8_3 1)))
 (or $x4164 $x5662 $x5495 $x2518 $x6492 $x9155 $x399 $x761 $x7907)))))))))))
(assert
 (let (($x1169 (= cell_9_3 1)))
 (or $x1169 (= cell_9_3 2) (= cell_9_3 3) (= cell_9_3 4) (= cell_9_3 5) (= cell_9_3 6) (= cell_9_3 7) (= cell_9_3 8) (= cell_9_3 9))))
(assert
 (let (($x786 (= cell_1_4 1)))
 (or $x786 (= cell_1_4 2) (= cell_1_4 3) (= cell_1_4 4) (= cell_1_4 5) (= cell_1_4 6) (= cell_1_4 7) (= cell_1_4 8) (= cell_1_4 9))))
(assert
 (let (($x9690 (= cell_2_4 9)))
 (let (($x4330 (= cell_2_4 8)))
 (let (($x3110 (= cell_2_4 7)))
 (let (($x8007 (= cell_2_4 6)))
 (let (($x5023 (= cell_2_4 5)))
 (let (($x1467 (= cell_2_4 4)))
 (let (($x3136 (= cell_2_4 3)))
 (let (($x9046 (= cell_2_4 2)))
 (let (($x851 (= cell_2_4 1)))
 (or $x851 $x9046 $x3136 $x1467 $x5023 $x8007 $x3110 $x4330 $x9690)))))))))))
(assert
 (let (($x9563 (= cell_3_4 9)))
 (let (($x9840 (= cell_3_4 8)))
 (let (($x6498 (= cell_3_4 7)))
 (let (($x2357 (= cell_3_4 6)))
 (let (($x10135 (= cell_3_4 5)))
 (let (($x3456 (= cell_3_4 4)))
 (let (($x4556 (= cell_3_4 3)))
 (let (($x312 (= cell_3_4 2)))
 (let (($x4096 (= cell_3_4 1)))
 (or $x4096 $x312 $x4556 $x3456 $x10135 $x2357 $x6498 $x9840 $x9563)))))))))))
(assert
 (let (($x8926 (= cell_4_4 9)))
 (let (($x5030 (= cell_4_4 8)))
 (let (($x6336 (= cell_4_4 7)))
 (let (($x2418 (= cell_4_4 6)))
 (let (($x9429 (= cell_4_4 5)))
 (let (($x5663 (= cell_4_4 4)))
 (let (($x9021 (= cell_4_4 3)))
 (let (($x10031 (= cell_4_4 2)))
 (let (($x298 (= cell_4_4 1)))
 (or $x298 $x10031 $x9021 $x5663 $x9429 $x2418 $x6336 $x5030 $x8926)))))))))))
(assert
 (let (($x7551 (= cell_5_4 9)))
 (let (($x1115 (= cell_5_4 8)))
 (let (($x8952 (= cell_5_4 7)))
 (let (($x7201 (= cell_5_4 6)))
 (let (($x2119 (= cell_5_4 5)))
 (let (($x6128 (= cell_5_4 4)))
 (let (($x2939 (= cell_5_4 3)))
 (let (($x1492 (= cell_5_4 2)))
 (let (($x5201 (= cell_5_4 1)))
 (or $x5201 $x1492 $x2939 $x6128 $x2119 $x7201 $x8952 $x1115 $x7551)))))))))))
(assert
 (let (($x3528 (= cell_6_4 1)))
 (or $x3528 (= cell_6_4 2) (= cell_6_4 3) (= cell_6_4 4) (= cell_6_4 5) (= cell_6_4 6) (= cell_6_4 7) (= cell_6_4 8) (= cell_6_4 9))))
(assert
 (let (($x5600 (= cell_7_4 9)))
 (let (($x3991 (= cell_7_4 8)))
 (let (($x2916 (= cell_7_4 7)))
 (let (($x3914 (= cell_7_4 6)))
 (let (($x8839 (= cell_7_4 5)))
 (let (($x2771 (= cell_7_4 4)))
 (let (($x8149 (= cell_7_4 3)))
 (let (($x9781 (= cell_7_4 2)))
 (let (($x7929 (= cell_7_4 1)))
 (or $x7929 $x9781 $x8149 $x2771 $x8839 $x3914 $x2916 $x3991 $x5600)))))))))))
(assert
 (let (($x8003 (= cell_8_4 9)))
 (let (($x1463 (= cell_8_4 8)))
 (let (($x1733 (= cell_8_4 7)))
 (let (($x7459 (= cell_8_4 6)))
 (let (($x2945 (= cell_8_4 5)))
 (let (($x8078 (= cell_8_4 4)))
 (let (($x6433 (= cell_8_4 3)))
 (let (($x8212 (= cell_8_4 2)))
 (let (($x5401 (= cell_8_4 1)))
 (or $x5401 $x8212 $x6433 $x8078 $x2945 $x7459 $x1733 $x1463 $x8003)))))))))))
(assert
 (let (($x3222 (= cell_9_4 1)))
 (or $x3222 (= cell_9_4 2) (= cell_9_4 3) (= cell_9_4 4) (= cell_9_4 5) (= cell_9_4 6) (= cell_9_4 7) (= cell_9_4 8) (= cell_9_4 9))))
(assert
 (let (($x9732 (= cell_1_5 9)))
 (let (($x2849 (= cell_1_5 8)))
 (let (($x9010 (= cell_1_5 7)))
 (let (($x401 (= cell_1_5 6)))
 (let (($x4669 (= cell_1_5 5)))
 (let (($x950 (= cell_1_5 4)))
 (let (($x7549 (= cell_1_5 3)))
 (let (($x4407 (= cell_1_5 2)))
 (let (($x4921 (= cell_1_5 1)))
 (or $x4921 $x4407 $x7549 $x950 $x4669 $x401 $x9010 $x2849 $x9732)))))))))))
(assert
 (let (($x6006 (= cell_2_5 2)))
 (or (= cell_2_5 1) $x6006 (= cell_2_5 3) (= cell_2_5 4) (= cell_2_5 5) (= cell_2_5 6) (= cell_2_5 7) (= cell_2_5 8) (= cell_2_5 9))))
(assert
 (let (($x6604 (= cell_3_5 9)))
 (let (($x4328 (= cell_3_5 8)))
 (let (($x10129 (= cell_3_5 7)))
 (let (($x3721 (= cell_3_5 6)))
 (let (($x6510 (= cell_3_5 5)))
 (let (($x7476 (= cell_3_5 4)))
 (let (($x1005 (= cell_3_5 3)))
 (let (($x8848 (= cell_3_5 2)))
 (let (($x10021 (= cell_3_5 1)))
 (or $x10021 $x8848 $x1005 $x7476 $x6510 $x3721 $x10129 $x4328 $x6604)))))))))))
(assert
 (let (($x578 (= cell_4_5 9)))
 (let (($x8391 (= cell_4_5 8)))
 (let (($x9802 (= cell_4_5 7)))
 (let (($x8313 (= cell_4_5 6)))
 (let (($x6414 (= cell_4_5 5)))
 (let (($x6346 (= cell_4_5 4)))
 (let (($x3954 (= cell_4_5 3)))
 (let (($x9252 (= cell_4_5 2)))
 (let (($x6034 (= cell_4_5 1)))
 (or $x6034 $x9252 $x3954 $x6346 $x6414 $x8313 $x9802 $x8391 $x578)))))))))))
(assert
 (let (($x5589 (= cell_5_5 9)))
 (let (($x8076 (= cell_5_5 8)))
 (let (($x3657 (= cell_5_5 7)))
 (let (($x4698 (= cell_5_5 6)))
 (let (($x5418 (= cell_5_5 5)))
 (let (($x7153 (= cell_5_5 4)))
 (let (($x2220 (= cell_5_5 3)))
 (let (($x822 (= cell_5_5 2)))
 (let (($x529 (= cell_5_5 1)))
 (or $x529 $x822 $x2220 $x7153 $x5418 $x4698 $x3657 $x8076 $x5589)))))))))))
(assert
 (let (($x828 (= cell_6_5 9)))
 (let (($x2727 (= cell_6_5 8)))
 (let (($x6708 (= cell_6_5 7)))
 (let (($x6886 (= cell_6_5 6)))
 (let (($x8919 (= cell_6_5 5)))
 (let (($x10098 (= cell_6_5 4)))
 (let (($x3354 (= cell_6_5 3)))
 (let (($x9992 (= cell_6_5 2)))
 (let (($x7859 (= cell_6_5 1)))
 (or $x7859 $x9992 $x3354 $x10098 $x8919 $x6886 $x6708 $x2727 $x828)))))))))))
(assert
 (let (($x10220 (= cell_7_5 1)))
 (or $x10220 (= cell_7_5 2) (= cell_7_5 3) (= cell_7_5 4) (= cell_7_5 5) (= cell_7_5 6) (= cell_7_5 7) (= cell_7_5 8) (= cell_7_5 9))))
(assert
 (let (($x4901 (= cell_8_5 9)))
 (let (($x7840 (= cell_8_5 8)))
 (let (($x2057 (= cell_8_5 7)))
 (let (($x984 (= cell_8_5 6)))
 (let (($x1981 (= cell_8_5 5)))
 (let (($x6851 (= cell_8_5 4)))
 (let (($x4877 (= cell_8_5 3)))
 (let (($x230 (= cell_8_5 2)))
 (let (($x4476 (= cell_8_5 1)))
 (or $x4476 $x230 $x4877 $x6851 $x1981 $x984 $x2057 $x7840 $x4901)))))))))))
(assert
 (let (($x7614 (= cell_9_5 2)))
 (let (($x10022 (= cell_9_5 1)))
 (or $x10022 $x7614 (= cell_9_5 3) (= cell_9_5 4) (= cell_9_5 5) (= cell_9_5 6) (= cell_9_5 7) (= cell_9_5 8) (= cell_9_5 9)))))
(assert
 (let (($x1606 (= cell_1_6 9)))
 (let (($x8037 (= cell_1_6 8)))
 (let (($x7081 (= cell_1_6 7)))
 (let (($x3567 (= cell_1_6 6)))
 (let (($x10116 (= cell_1_6 5)))
 (let (($x7541 (= cell_1_6 4)))
 (let (($x7945 (= cell_1_6 3)))
 (let (($x4911 (= cell_1_6 2)))
 (let (($x123 (= cell_1_6 1)))
 (or $x123 $x4911 $x7945 $x7541 $x10116 $x3567 $x7081 $x8037 $x1606)))))))))))
(assert
 (let (($x6142 (= cell_2_6 9)))
 (let (($x3857 (= cell_2_6 8)))
 (let (($x574 (= cell_2_6 7)))
 (let (($x4397 (= cell_2_6 6)))
 (let (($x7398 (= cell_2_6 5)))
 (let (($x7259 (= cell_2_6 4)))
 (let (($x1819 (= cell_2_6 3)))
 (let (($x8198 (= cell_2_6 2)))
 (let (($x2013 (= cell_2_6 1)))
 (or $x2013 $x8198 $x1819 $x7259 $x7398 $x4397 $x574 $x3857 $x6142)))))))))))
(assert
 (let (($x8023 (= cell_3_6 9)))
 (let (($x9434 (= cell_3_6 8)))
 (let (($x88 (= cell_3_6 7)))
 (let (($x9253 (= cell_3_6 6)))
 (let (($x8315 (= cell_3_6 5)))
 (let (($x3484 (= cell_3_6 4)))
 (let (($x2063 (= cell_3_6 3)))
 (let (($x5943 (= cell_3_6 2)))
 (let (($x9656 (= cell_3_6 1)))
 (or $x9656 $x5943 $x2063 $x3484 $x8315 $x9253 $x88 $x9434 $x8023)))))))))))
(assert
 (let (($x6534 (= cell_4_6 1)))
 (or $x6534 (= cell_4_6 2) (= cell_4_6 3) (= cell_4_6 4) (= cell_4_6 5) (= cell_4_6 6) (= cell_4_6 7) (= cell_4_6 8) (= cell_4_6 9))))
(assert
 (let (($x4954 (= cell_5_6 9)))
 (let (($x481 (= cell_5_6 8)))
 (let (($x7941 (= cell_5_6 7)))
 (let (($x9276 (= cell_5_6 6)))
 (let (($x7757 (= cell_5_6 5)))
 (let (($x1970 (= cell_5_6 4)))
 (let (($x5417 (= cell_5_6 3)))
 (let (($x7306 (= cell_5_6 2)))
 (let (($x2159 (= cell_5_6 1)))
 (or $x2159 $x7306 $x5417 $x1970 $x7757 $x9276 $x7941 $x481 $x4954)))))))))))
(assert
 (let (($x2077 (= cell_6_6 1)))
 (or $x2077 (= cell_6_6 2) (= cell_6_6 3) (= cell_6_6 4) (= cell_6_6 5) (= cell_6_6 6) (= cell_6_6 7) (= cell_6_6 8) (= cell_6_6 9))))
(assert
 (let (($x7137 (= cell_7_6 1)))
 (or $x7137 (= cell_7_6 2) (= cell_7_6 3) (= cell_7_6 4) (= cell_7_6 5) (= cell_7_6 6) (= cell_7_6 7) (= cell_7_6 8) (= cell_7_6 9))))
(assert
 (let (($x2247 (= cell_8_6 9)))
 (let (($x7616 (= cell_8_6 8)))
 (let (($x2665 (= cell_8_6 7)))
 (let (($x8729 (= cell_8_6 6)))
 (let (($x1808 (= cell_8_6 5)))
 (let (($x10211 (= cell_8_6 4)))
 (let (($x7698 (= cell_8_6 3)))
 (let (($x4088 (= cell_8_6 2)))
 (let (($x5175 (= cell_8_6 1)))
 (or $x5175 $x4088 $x7698 $x10211 $x1808 $x8729 $x2665 $x7616 $x2247)))))))))))
(assert
 (let (($x1553 (= cell_9_6 1)))
 (or $x1553 (= cell_9_6 2) (= cell_9_6 3) (= cell_9_6 4) (= cell_9_6 5) (= cell_9_6 6) (= cell_9_6 7) (= cell_9_6 8) (= cell_9_6 9))))
(assert
 (let (($x3638 (= cell_1_7 9)))
 (let (($x3541 (= cell_1_7 8)))
 (let (($x6506 (= cell_1_7 7)))
 (let (($x5811 (= cell_1_7 6)))
 (let (($x10203 (= cell_1_7 5)))
 (let (($x3369 (= cell_1_7 4)))
 (let (($x5101 (= cell_1_7 3)))
 (let (($x7510 (= cell_1_7 2)))
 (let (($x9614 (= cell_1_7 1)))
 (or $x9614 $x7510 $x5101 $x3369 $x10203 $x5811 $x6506 $x3541 $x3638)))))))))))
(assert
 (let (($x644 (= cell_2_7 9)))
 (let (($x10075 (= cell_2_7 8)))
 (let (($x5648 (= cell_2_7 7)))
 (let (($x1533 (= cell_2_7 6)))
 (let (($x2947 (= cell_2_7 5)))
 (let (($x121 (= cell_2_7 4)))
 (let (($x494 (= cell_2_7 3)))
 (let (($x7050 (= cell_2_7 2)))
 (let (($x6662 (= cell_2_7 1)))
 (or $x6662 $x7050 $x494 $x121 $x2947 $x1533 $x5648 $x10075 $x644)))))))))))
(assert
 (let (($x6958 (= cell_3_7 1)))
 (or $x6958 (= cell_3_7 2) (= cell_3_7 3) (= cell_3_7 4) (= cell_3_7 5) (= cell_3_7 6) (= cell_3_7 7) (= cell_3_7 8) (= cell_3_7 9))))
(assert
 (let (($x8973 (= cell_4_7 9)))
 (let (($x1213 (= cell_4_7 8)))
 (let (($x2895 (= cell_4_7 7)))
 (let (($x8887 (= cell_4_7 6)))
 (let (($x425 (= cell_4_7 5)))
 (let (($x8633 (= cell_4_7 4)))
 (let (($x9482 (= cell_4_7 3)))
 (let (($x3383 (= cell_4_7 2)))
 (let (($x8469 (= cell_4_7 1)))
 (or $x8469 $x3383 $x9482 $x8633 $x425 $x8887 $x2895 $x1213 $x8973)))))))))))
(assert
 (let (($x1301 (= cell_5_7 9)))
 (let (($x7748 (= cell_5_7 8)))
 (let (($x5937 (= cell_5_7 7)))
 (let (($x3948 (= cell_5_7 6)))
 (let (($x9442 (= cell_5_7 5)))
 (let (($x6226 (= cell_5_7 4)))
 (let (($x3776 (= cell_5_7 3)))
 (let (($x8077 (= cell_5_7 2)))
 (let (($x10127 (= cell_5_7 1)))
 (or $x10127 $x8077 $x3776 $x6226 $x9442 $x3948 $x5937 $x7748 $x1301)))))))))))
(assert
 (let (($x1737 (= cell_6_7 1)))
 (or $x1737 (= cell_6_7 2) (= cell_6_7 3) (= cell_6_7 4) (= cell_6_7 5) (= cell_6_7 6) (= cell_6_7 7) (= cell_6_7 8) (= cell_6_7 9))))
(assert
 (let (($x6392 (= cell_7_7 9)))
 (let (($x9025 (= cell_7_7 8)))
 (let (($x4286 (= cell_7_7 7)))
 (let (($x3957 (= cell_7_7 6)))
 (let (($x9733 (= cell_7_7 5)))
 (let (($x8488 (= cell_7_7 4)))
 (let (($x8472 (= cell_7_7 3)))
 (let (($x5973 (= cell_7_7 2)))
 (let (($x6521 (= cell_7_7 1)))
 (or $x6521 $x5973 $x8472 $x8488 $x9733 $x3957 $x4286 $x9025 $x6392)))))))))))
(assert
 (let (($x7553 (= cell_8_7 9)))
 (let (($x6253 (= cell_8_7 8)))
 (let (($x2787 (= cell_8_7 7)))
 (let (($x6925 (= cell_8_7 6)))
 (let (($x7218 (= cell_8_7 5)))
 (let (($x1095 (= cell_8_7 4)))
 (let (($x8167 (= cell_8_7 3)))
 (let (($x7239 (= cell_8_7 2)))
 (let (($x8881 (= cell_8_7 1)))
 (or $x8881 $x7239 $x8167 $x1095 $x7218 $x6925 $x2787 $x6253 $x7553)))))))))))
(assert
 (let (($x8497 (= cell_9_7 1)))
 (or $x8497 (= cell_9_7 2) (= cell_9_7 3) (= cell_9_7 4) (= cell_9_7 5) (= cell_9_7 6) (= cell_9_7 7) (= cell_9_7 8) (= cell_9_7 9))))
(assert
 (let (($x9246 (= cell_1_8 9)))
 (let (($x6974 (= cell_1_8 8)))
 (let (($x4356 (= cell_1_8 7)))
 (let (($x1072 (= cell_1_8 6)))
 (let (($x2673 (= cell_1_8 5)))
 (let (($x9338 (= cell_1_8 4)))
 (let (($x7245 (= cell_1_8 3)))
 (let (($x3658 (= cell_1_8 2)))
 (let (($x5363 (= cell_1_8 1)))
 (or $x5363 $x3658 $x7245 $x9338 $x2673 $x1072 $x4356 $x6974 $x9246)))))))))))
(assert
 (let (($x2398 (= cell_2_8 9)))
 (let (($x4240 (= cell_2_8 8)))
 (let (($x994 (= cell_2_8 7)))
 (let (($x3134 (= cell_2_8 6)))
 (let (($x8114 (= cell_2_8 5)))
 (let (($x1385 (= cell_2_8 4)))
 (let (($x2391 (= cell_2_8 3)))
 (let (($x6480 (= cell_2_8 2)))
 (let (($x327 (= cell_2_8 1)))
 (or $x327 $x6480 $x2391 $x1385 $x8114 $x3134 $x994 $x4240 $x2398)))))))))))
(assert
 (let (($x10201 (= cell_3_8 2)))
 (or (= cell_3_8 1) $x10201 (= cell_3_8 3) (= cell_3_8 4) (= cell_3_8 5) (= cell_3_8 6) (= cell_3_8 7) (= cell_3_8 8) (= cell_3_8 9))))
(assert
 (let (($x2718 (= cell_4_8 9)))
 (let (($x8045 (= cell_4_8 8)))
 (let (($x23 (= cell_4_8 7)))
 (let (($x2421 (= cell_4_8 6)))
 (let (($x5926 (= cell_4_8 5)))
 (let (($x4585 (= cell_4_8 4)))
 (let (($x2001 (= cell_4_8 3)))
 (let (($x2932 (= cell_4_8 2)))
 (let (($x2362 (= cell_4_8 1)))
 (or $x2362 $x2932 $x2001 $x4585 $x5926 $x2421 $x23 $x8045 $x2718)))))))))))
(assert
 (let (($x5047 (= cell_5_8 9)))
 (let (($x5671 (= cell_5_8 8)))
 (let (($x6897 (= cell_5_8 7)))
 (let (($x491 (= cell_5_8 6)))
 (let (($x5863 (= cell_5_8 5)))
 (let (($x4838 (= cell_5_8 4)))
 (let (($x4712 (= cell_5_8 3)))
 (let (($x3301 (= cell_5_8 2)))
 (let (($x4134 (= cell_5_8 1)))
 (or $x4134 $x3301 $x4712 $x4838 $x5863 $x491 $x6897 $x5671 $x5047)))))))))))
(assert
 (let (($x9632 (= cell_6_8 9)))
 (let (($x1153 (= cell_6_8 8)))
 (let (($x2481 (= cell_6_8 7)))
 (let (($x5278 (= cell_6_8 6)))
 (let (($x576 (= cell_6_8 5)))
 (let (($x7131 (= cell_6_8 4)))
 (let (($x6473 (= cell_6_8 3)))
 (let (($x3176 (= cell_6_8 2)))
 (let (($x1875 (= cell_6_8 1)))
 (or $x1875 $x3176 $x6473 $x7131 $x576 $x5278 $x2481 $x1153 $x9632)))))))))))
(assert
 (let (($x3705 (= cell_7_8 9)))
 (let (($x3902 (= cell_7_8 8)))
 (let (($x7329 (= cell_7_8 7)))
 (let (($x2820 (= cell_7_8 6)))
 (let (($x280 (= cell_7_8 5)))
 (let (($x7651 (= cell_7_8 4)))
 (let (($x9302 (= cell_7_8 3)))
 (let (($x1610 (= cell_7_8 2)))
 (let (($x1645 (= cell_7_8 1)))
 (or $x1645 $x1610 $x9302 $x7651 $x280 $x2820 $x7329 $x3902 $x3705)))))))))))
(assert
 (let (($x8303 (= cell_8_8 1)))
 (or $x8303 (= cell_8_8 2) (= cell_8_8 3) (= cell_8_8 4) (= cell_8_8 5) (= cell_8_8 6) (= cell_8_8 7) (= cell_8_8 8) (= cell_8_8 9))))
(assert
 (let (($x10151 (= cell_9_8 2)))
 (let (($x8621 (= cell_9_8 1)))
 (or $x8621 $x10151 (= cell_9_8 3) (= cell_9_8 4) (= cell_9_8 5) (= cell_9_8 6) (= cell_9_8 7) (= cell_9_8 8) (= cell_9_8 9)))))
(assert
 (let (($x9443 (= cell_1_9 9)))
 (let (($x7860 (= cell_1_9 8)))
 (let (($x2382 (= cell_1_9 7)))
 (let (($x342 (= cell_1_9 6)))
 (let (($x4080 (= cell_1_9 5)))
 (let (($x6973 (= cell_1_9 4)))
 (let (($x4470 (= cell_1_9 3)))
 (let (($x8307 (= cell_1_9 2)))
 (let (($x6240 (= cell_1_9 1)))
 (or $x6240 $x8307 $x4470 $x6973 $x4080 $x342 $x2382 $x7860 $x9443)))))))))))
(assert
 (let (($x2818 (= cell_2_9 9)))
 (let (($x4565 (= cell_2_9 8)))
 (let (($x9022 (= cell_2_9 7)))
 (let (($x1554 (= cell_2_9 6)))
 (let (($x5017 (= cell_2_9 5)))
 (let (($x7669 (= cell_2_9 4)))
 (let (($x104 (= cell_2_9 3)))
 (let (($x346 (= cell_2_9 2)))
 (let (($x7002 (= cell_2_9 1)))
 (or $x7002 $x346 $x104 $x7669 $x5017 $x1554 $x9022 $x4565 $x2818)))))))))))
(assert
 (let (($x4760 (= cell_3_9 9)))
 (let (($x6833 (= cell_3_9 8)))
 (let (($x2584 (= cell_3_9 7)))
 (let (($x4731 (= cell_3_9 6)))
 (let (($x9015 (= cell_3_9 5)))
 (let (($x3941 (= cell_3_9 4)))
 (let (($x58 (= cell_3_9 3)))
 (let (($x1689 (= cell_3_9 2)))
 (let (($x3786 (= cell_3_9 1)))
 (or $x3786 $x1689 $x58 $x3941 $x9015 $x4731 $x2584 $x6833 $x4760)))))))))))
(assert
 (let (($x9091 (= cell_4_9 9)))
 (let (($x1303 (= cell_4_9 8)))
 (let (($x6824 (= cell_4_9 7)))
 (let (($x8056 (= cell_4_9 6)))
 (let (($x830 (= cell_4_9 5)))
 (let (($x2990 (= cell_4_9 4)))
 (let (($x9776 (= cell_4_9 3)))
 (let (($x8551 (= cell_4_9 2)))
 (let (($x8625 (= cell_4_9 1)))
 (or $x8625 $x8551 $x9776 $x2990 $x830 $x8056 $x6824 $x1303 $x9091)))))))))))
(assert
 (let (($x7124 (= cell_5_9 1)))
 (or $x7124 (= cell_5_9 2) (= cell_5_9 3) (= cell_5_9 4) (= cell_5_9 5) (= cell_5_9 6) (= cell_5_9 7) (= cell_5_9 8) (= cell_5_9 9))))
(assert
 (let (($x1198 (= cell_6_9 1)))
 (or $x1198 (= cell_6_9 2) (= cell_6_9 3) (= cell_6_9 4) (= cell_6_9 5) (= cell_6_9 6) (= cell_6_9 7) (= cell_6_9 8) (= cell_6_9 9))))
(assert
 (let (($x5093 (= cell_7_9 9)))
 (let (($x9587 (= cell_7_9 8)))
 (let (($x1960 (= cell_7_9 7)))
 (let (($x8272 (= cell_7_9 6)))
 (let (($x8805 (= cell_7_9 5)))
 (let (($x5179 (= cell_7_9 4)))
 (let (($x4537 (= cell_7_9 3)))
 (let (($x3993 (= cell_7_9 2)))
 (let (($x6546 (= cell_7_9 1)))
 (or $x6546 $x3993 $x4537 $x5179 $x8805 $x8272 $x1960 $x9587 $x5093)))))))))))
(assert
 (let (($x9661 (= cell_8_9 1)))
 (or $x9661 (= cell_8_9 2) (= cell_8_9 3) (= cell_8_9 4) (= cell_8_9 5) (= cell_8_9 6) (= cell_8_9 7) (= cell_8_9 8) (= cell_8_9 9))))
(assert
 (let (($x4271 (= cell_9_9 1)))
 (or $x4271 (= cell_9_9 2) (= cell_9_9 3) (= cell_9_9 4) (= cell_9_9 5) (= cell_9_9 6) (= cell_9_9 7) (= cell_9_9 8) (= cell_9_9 9))))
(assert
 (and (distinct cell_1_1 cell_1_2 cell_1_3 cell_1_4 cell_1_5 cell_1_6 cell_1_7 cell_1_8 cell_1_9) true))
(assert
 (and (distinct cell_2_1 cell_2_2 cell_2_3 cell_2_4 cell_2_5 cell_2_6 cell_2_7 cell_2_8 cell_2_9) true))
(assert
 (and (distinct cell_3_1 cell_3_2 cell_3_3 cell_3_4 cell_3_5 cell_3_6 cell_3_7 cell_3_8 cell_3_9) true))
(assert
 (and (distinct cell_4_1 cell_4_2 cell_4_3 cell_4_4 cell_4_5 cell_4_6 cell_4_7 cell_4_8 cell_4_9) true))
(assert
 (and (distinct cell_5_1 cell_5_2 cell_5_3 cell_5_4 cell_5_5 cell_5_6 cell_5_7 cell_5_8 cell_5_9) true))
(assert
 (and (distinct cell_6_1 cell_6_2 cell_6_3 cell_6_4 cell_6_5 cell_6_6 cell_6_7 cell_6_8 cell_6_9) true))
(assert
 (and (distinct cell_7_1 cell_7_2 cell_7_3 cell_7_4 cell_7_5 cell_7_6 cell_7_7 cell_7_8 cell_7_9) true))
(assert
 (and (distinct cell_8_1 cell_8_2 cell_8_3 cell_8_4 cell_8_5 cell_8_6 cell_8_7 cell_8_8 cell_8_9) true))
(assert
 (and (distinct cell_9_1 cell_9_2 cell_9_3 cell_9_4 cell_9_5 cell_9_6 cell_9_7 cell_9_8 cell_9_9) true))
(assert
 (and (distinct cell_1_1 cell_2_1 cell_3_1 cell_4_1 cell_5_1 cell_6_1 cell_7_1 cell_8_1 cell_9_1) true))
(assert
 (and (distinct cell_1_2 cell_2_2 cell_3_2 cell_4_2 cell_5_2 cell_6_2 cell_7_2 cell_8_2 cell_9_2) true))
(assert
 (and (distinct cell_1_3 cell_2_3 cell_3_3 cell_4_3 cell_5_3 cell_6_3 cell_7_3 cell_8_3 cell_9_3) true))
(assert
 (and (distinct cell_1_4 cell_2_4 cell_3_4 cell_4_4 cell_5_4 cell_6_4 cell_7_4 cell_8_4 cell_9_4) true))
(assert
 (and (distinct cell_1_5 cell_2_5 cell_3_5 cell_4_5 cell_5_5 cell_6_5 cell_7_5 cell_8_5 cell_9_5) true))
(assert
 (and (distinct cell_1_6 cell_2_6 cell_3_6 cell_4_6 cell_5_6 cell_6_6 cell_7_6 cell_8_6 cell_9_6) true))
(assert
 (and (distinct cell_1_7 cell_2_7 cell_3_7 cell_4_7 cell_5_7 cell_6_7 cell_7_7 cell_8_7 cell_9_7) true))
(assert
 (and (distinct cell_1_8 cell_2_8 cell_3_8 cell_4_8 cell_5_8 cell_6_8 cell_7_8 cell_8_8 cell_9_8) true))
(assert
 (and (distinct cell_1_9 cell_2_9 cell_3_9 cell_4_9 cell_5_9 cell_6_9 cell_7_9 cell_8_9 cell_9_9) true))
(assert
 (and (distinct cell_1_1 cell_1_2 cell_1_3 cell_2_1 cell_2_2 cell_2_3 cell_3_1 cell_3_2 cell_3_3) true))
(assert
 (and (distinct cell_1_4 cell_1_5 cell_1_6 cell_2_4 cell_2_5 cell_2_6 cell_3_4 cell_3_5 cell_3_6) true))
(assert
 (and (distinct cell_1_7 cell_1_8 cell_1_9 cell_2_7 cell_2_8 cell_2_9 cell_3_7 cell_3_8 cell_3_9) true))
(assert
 (and (distinct cell_4_1 cell_4_2 cell_4_3 cell_5_1 cell_5_2 cell_5_3 cell_6_1 cell_6_2 cell_6_3) true))
(assert
 (and (distinct cell_4_4 cell_4_5 cell_4_6 cell_5_4 cell_5_5 cell_5_6 cell_6_4 cell_6_5 cell_6_6) true))
(assert
 (and (distinct cell_4_7 cell_4_8 cell_4_9 cell_5_7 cell_5_8 cell_5_9 cell_6_7 cell_6_8 cell_6_9) true))
(assert
 (and (distinct cell_7_1 cell_7_2 cell_7_3 cell_8_1 cell_8_2 cell_8_3 cell_9_1 cell_9_2 cell_9_3) true))
(assert
 (and (distinct cell_7_4 cell_7_5 cell_7_6 cell_8_4 cell_8_5 cell_8_6 cell_9_4 cell_9_5 cell_9_6) true))
(assert
 (and (distinct cell_7_7 cell_7_8 cell_7_9 cell_8_7 cell_8_8 cell_8_9 cell_9_7 cell_9_8 cell_9_9) true))
(assert
 (let (($x3109 (and (distinct cell_5_9 cell_6_8 cell_7_7 cell_8_6) true)))
 (let (($x1603 (and (distinct cell_2_9 cell_3_8 cell_4_7 cell_5_6 cell_6_5 cell_7_4 cell_8_3 cell_9_2) true)))
 (let (($x2613 (and (distinct cell_1_8 cell_2_7 cell_3_6 cell_4_5 cell_5_4 cell_6_3 cell_7_2 cell_8_1) true)))
 (let (($x6977 (and (distinct cell_1_5 cell_2_4 cell_3_3 cell_4_2) true)))
 (let (($x7702 (and (distinct cell_5_1 cell_6_2 cell_7_3 cell_8_4) true)))
 (let (($x6026 (and (distinct cell_2_1 cell_3_2 cell_4_3 cell_5_4 cell_6_5 cell_7_6 cell_8_7 cell_9_8) true)))
 (let (($x5286 (and (distinct cell_1_2 cell_2_3 cell_3_4 cell_4_5 cell_5_6 cell_6_7 cell_7_8 cell_8_9) true)))
 (let (($x3207 (and (distinct cell_1_5 cell_2_6 cell_3_7 cell_4_8) true)))
 (and $x3207 $x5286 $x6026 $x7702 $x6977 $x2613 $x1603 $x3109))))))))))
(assert
 (= cell_4_2 2))
(check-sat)
